\ENCODING=ISO-8859-1
\Problem name: 

Maximize
 obj1: h_1 + h_2 + h_3 + h_4 + h_5 + h_6 + h_7 + h_8 + h_9 + h_10 + h_11 + h_12
       + h_13 + h_14 + h_15 + h_16 + h_17 + h_18 + h_19 + h_20 + h_21 + h_22
       + h_23 + h_24 + h_25 + h_26 + h_27 + h_28 + h_29 + h_30 + h_31 + h_32
       + h_33 + h_34 + h_35 + h_36 + h_37 + h_38 + h_39 + h_40 + h_41 + h_42
       + h_43 + h_44 + h_45 + h_46 + h_47 + h_48 + h_49 + h_50 + h_51 + h_52
       + h_53 + h_54 + h_55 + h_56 + h_57 + h_58 + h_59 + h_60 + h_61 + h_62
       + h_63 + h_64 + h_65 + h_66 + h_67 + h_68 + h_69 + h_70 + h_71 + h_72
       + h_73 + h_74 + h_75 + h_76 + h_77 + h_78 + h_79 + h_80 + h_81 + h_82
       + h_83 + h_84 + h_85 + h_86 + h_87 + h_88 + h_89 + h_90 + h_91 + h_92
       + h_93 + h_94 + h_95 + h_96 + h_97 + h_98 + h_99 + h_100 + h_101 + h_102
       + h_103 + h_104 + h_105 + h_106 + h_107 + h_108 + h_109 + h_110 + h_111
       + h_112 + h_113 + h_114 + h_115 + h_116 + h_117 + h_118 + h_119 + h_120
       + h_121 + h_122 + h_123 + h_124 + h_125 + h_126 + h_127 + h_128
Subject To
 c1:   y_1 + y_2 + y_3 + y_4 + y_5 + y_6 + y_7 + y_8 + y_9 + y_10 + y_11 + y_12
       + y_13 + y_14 + y_15 + y_16 + y_17 + y_18 + y_19 + y_20 + y_21 + y_22
       + y_23 + y_24 + y_25 + y_26 + y_27 + y_28 + y_29 + y_30 + y_31 + y_32
       + y_33 + y_34 + y_35 + y_36 + y_37 + y_38 + y_39 + y_40 + y_41 + y_42
       + y_43 + y_44 + y_45 + y_46 + y_47 + y_48 + y_49 + y_50 + y_51 + y_52
       + y_53 + y_54 + y_55 + y_56 + y_57 + y_58 + y_59 + y_60 + y_61 + y_62
       + y_63 + y_64 + y_65 + y_66 + y_67 + y_68 + y_69 + y_70 + y_71 + y_72
       + y_73 + y_74 + y_75 + y_76 + y_77 + y_78 + y_79 + y_80 + y_81 + y_82
       + y_83 + y_84 + y_85 + y_86 + y_87 + y_88 + y_89 + y_90 + y_91 + y_92
       + y_93 + y_94 + y_95 + y_96 + y_97 + y_98 + y_99 + y_100 + y_101 + y_102
       + y_103 + y_104 + y_105 + y_106 + y_107 + y_108 + y_109 + y_110 + y_111
       + y_112 + y_113 + y_114 + y_115 + y_116 + y_117 + y_118 + y_119 + y_120
       + y_121 + y_122 + y_123 + y_124 + y_125 + y_126 + y_127 + y_128  = 4
 c2:   - y_1 + h_1 <= 0
 c3:   - y_2 + h_2 <= 0
 c4:   - y_3 + h_3 <= 0
 c5:   - y_4 + h_4 <= 0
 c6:   - y_5 + h_5 <= 0
 c7:   - y_6 + h_6 <= 0
 c8:   - y_7 + h_7 <= 0
 c9:   - y_8 + h_8 <= 0
 c10:  - y_9 + h_9 <= 0
 c11:  - y_10 + h_10 <= 0
 c12:  - y_11 + h_11 <= 0
 c13:  - y_12 + h_12 <= 0
 c14:  - y_13 + h_13 <= 0
 c15:  - y_14 + h_14 <= 0
 c16:  - y_15 + h_15 <= 0
 c17:  - y_16 + h_16 <= 0
 c18:  - y_17 + h_17 <= 0
 c19:  - y_18 + h_18 <= 0
 c20:  - y_19 + h_19 <= 0
 c21:  - y_20 + h_20 <= 0
 c22:  - y_21 + h_21 <= 0
 c23:  - y_22 + h_22 <= 0
 c24:  - y_23 + h_23 <= 0
 c25:  - y_24 + h_24 <= 0
 c26:  - y_25 + h_25 <= 0
 c27:  - y_26 + h_26 <= 0
 c28:  - y_27 + h_27 <= 0
 c29:  - y_28 + h_28 <= 0
 c30:  - y_29 + h_29 <= 0
 c31:  - y_30 + h_30 <= 0
 c32:  - y_31 + h_31 <= 0
 c33:  - y_32 + h_32 <= 0
 c34:  - y_33 + h_33 <= 0
 c35:  - y_34 + h_34 <= 0
 c36:  - y_35 + h_35 <= 0
 c37:  - y_36 + h_36 <= 0
 c38:  - y_37 + h_37 <= 0
 c39:  - y_38 + h_38 <= 0
 c40:  - y_39 + h_39 <= 0
 c41:  - y_40 + h_40 <= 0
 c42:  - y_41 + h_41 <= 0
 c43:  - y_42 + h_42 <= 0
 c44:  - y_43 + h_43 <= 0
 c45:  - y_44 + h_44 <= 0
 c46:  - y_45 + h_45 <= 0
 c47:  - y_46 + h_46 <= 0
 c48:  - y_47 + h_47 <= 0
 c49:  - y_48 + h_48 <= 0
 c50:  - y_49 + h_49 <= 0
 c51:  - y_50 + h_50 <= 0
 c52:  - y_51 + h_51 <= 0
 c53:  - y_52 + h_52 <= 0
 c54:  - y_53 + h_53 <= 0
 c55:  - y_54 + h_54 <= 0
 c56:  - y_55 + h_55 <= 0
 c57:  - y_56 + h_56 <= 0
 c58:  - y_57 + h_57 <= 0
 c59:  - y_58 + h_58 <= 0
 c60:  - y_59 + h_59 <= 0
 c61:  - y_60 + h_60 <= 0
 c62:  - y_61 + h_61 <= 0
 c63:  - y_62 + h_62 <= 0
 c64:  - y_63 + h_63 <= 0
 c65:  - y_64 + h_64 <= 0
 c66:  - y_65 + h_65 <= 0
 c67:  - y_66 + h_66 <= 0
 c68:  - y_67 + h_67 <= 0
 c69:  - y_68 + h_68 <= 0
 c70:  - y_69 + h_69 <= 0
 c71:  - y_70 + h_70 <= 0
 c72:  - y_71 + h_71 <= 0
 c73:  - y_72 + h_72 <= 0
 c74:  - y_73 + h_73 <= 0
 c75:  - y_74 + h_74 <= 0
 c76:  - y_75 + h_75 <= 0
 c77:  - y_76 + h_76 <= 0
 c78:  - y_77 + h_77 <= 0
 c79:  - y_78 + h_78 <= 0
 c80:  - y_79 + h_79 <= 0
 c81:  - y_80 + h_80 <= 0
 c82:  - y_81 + h_81 <= 0
 c83:  - y_82 + h_82 <= 0
 c84:  - y_83 + h_83 <= 0
 c85:  - y_84 + h_84 <= 0
 c86:  - y_85 + h_85 <= 0
 c87:  - y_86 + h_86 <= 0
 c88:  - y_87 + h_87 <= 0
 c89:  - y_88 + h_88 <= 0
 c90:  - y_89 + h_89 <= 0
 c91:  - y_90 + h_90 <= 0
 c92:  - y_91 + h_91 <= 0
 c93:  - y_92 + h_92 <= 0
 c94:  - y_93 + h_93 <= 0
 c95:  - y_94 + h_94 <= 0
 c96:  - y_95 + h_95 <= 0
 c97:  - y_96 + h_96 <= 0
 c98:  - y_97 + h_97 <= 0
 c99:  - y_98 + h_98 <= 0
 c100: - y_99 + h_99 <= 0
 c101: - y_100 + h_100 <= 0
 c102: - y_101 + h_101 <= 0
 c103: - y_102 + h_102 <= 0
 c104: - y_103 + h_103 <= 0
 c105: - y_104 + h_104 <= 0
 c106: - y_105 + h_105 <= 0
 c107: - y_106 + h_106 <= 0
 c108: - y_107 + h_107 <= 0
 c109: - y_108 + h_108 <= 0
 c110: - y_109 + h_109 <= 0
 c111: - y_110 + h_110 <= 0
 c112: - y_111 + h_111 <= 0
 c113: - y_112 + h_112 <= 0
 c114: - y_113 + h_113 <= 0
 c115: - y_114 + h_114 <= 0
 c116: - y_115 + h_115 <= 0
 c117: - y_116 + h_116 <= 0
 c118: - y_117 + h_117 <= 0
 c119: - y_118 + h_118 <= 0
 c120: - y_119 + h_119 <= 0
 c121: - y_120 + h_120 <= 0
 c122: - y_121 + h_121 <= 0
 c123: - y_122 + h_122 <= 0
 c124: - y_123 + h_123 <= 0
 c125: - y_124 + h_124 <= 0
 c126: - y_125 + h_125 <= 0
 c127: - y_126 + h_126 <= 0
 c128: - y_127 + h_127 <= 0
 c129: - y_128 + h_128 <= 0
 c130: - y_2 + h_1 <= 0
 c131: - y_3 + h_1 <= 0
 c132: - y_4 + h_1 <= 0
 c133: - y_5 + h_1 <= 0
 c134: - y_6 + h_1 <= 0
 c135: - y_7 + h_1 <= 0
 c136: - y_8 + h_1 <= 0
 c137: - y_9 + h_1 <= 0
 c138: - y_10 + h_1 <= 0
 c139: - y_11 + h_1 <= 0
 c140: - y_12 + h_1 <= 0
 c141: - y_13 + h_1 <= 0
 c142: - y_14 + h_1 <= 0
 c143: - y_15 + h_1 <= 0
 c144: - y_16 + h_1 <= 0
 c145: - y_17 + h_1 <= 0
 c146: - y_18 + h_1 <= 0
 c147: - y_19 + h_1 <= 0
 c148: - y_20 + h_1 <= 0
 c149: - y_21 + h_1 <= 0
 c150: - y_22 + h_1 <= 0
 c151: - y_23 + h_1 <= 0
 c152: - y_24 + h_1 <= 0
 c153: - y_25 + h_1 <= 0
 c154: - y_26 + h_1 <= 0
 c155: - y_27 + h_1 <= 0
 c156: - y_28 + h_1 <= 0
 c157: - y_29 + h_1 <= 0
 c158: - y_30 + h_1 <= 0
 c159: - y_31 + h_1 <= 0
 c160: - y_32 + h_1 <= 0
 c161: - y_33 + h_1 <= 0
 c162: - y_34 + h_1 <= 0
 c163: - y_35 + h_1 <= 0
 c164: - y_36 + h_1 <= 0
 c165: - y_37 + h_1 <= 0
 c166: - y_38 + h_1 <= 0
 c167: - y_39 + h_1 <= 0
 c168: - y_40 + h_1 <= 0
 c169: - y_41 + h_1 <= 0
 c170: - y_42 + h_1 <= 0
 c171: - y_43 + h_1 <= 0
 c172: - y_44 + h_1 <= 0
 c173: - y_45 + h_1 <= 0
 c174: - y_46 + h_1 <= 0
 c175: - y_47 + h_1 <= 0
 c176: - y_48 + h_1 <= 0
 c177: - y_49 + h_1 <= 0
 c178: - y_50 + h_1 <= 0
 c179: - y_51 + h_1 <= 0
 c180: - y_52 + h_1 <= 0
 c181: - y_53 + h_1 <= 0
 c182: - y_54 + h_1 <= 0
 c183: - y_55 + h_1 <= 0
 c184: - y_56 + h_1 <= 0
 c185: - y_57 + h_1 <= 0
 c186: - y_58 + h_1 <= 0
 c187: - y_59 + h_1 <= 0
 c188: - y_60 + h_1 <= 0
 c189: - y_61 + h_1 <= 0
 c190: - y_62 + h_1 <= 0
 c191: - y_63 + h_1 <= 0
 c192: - y_64 + h_1 <= 0
 c193: - y_65 + h_1 <= 0
 c194: - y_66 + h_1 <= 0
 c195: - y_67 + h_1 <= 0
 c196: - y_68 + h_1 <= 0
 c197: - y_69 + h_1 <= 0
 c198: - y_70 + h_1 <= 0
 c199: - y_71 + h_1 <= 0
 c200: - y_72 + h_1 <= 0
 c201: - y_73 + h_1 <= 0
 c202: - y_74 + h_1 <= 0
 c203: - y_75 + h_1 <= 0
 c204: - y_76 + h_1 <= 0
 c205: - y_77 + h_1 <= 0
 c206: - y_78 + h_1 <= 0
 c207: - y_79 + h_1 <= 0
 c208: - y_80 + h_1 <= 0
 c209: - y_81 + h_1 <= 0
 c210: - y_82 + h_1 <= 0
 c211: - y_83 + h_1 <= 0
 c212: - y_84 + h_1 <= 0
 c213: - y_85 + h_1 <= 0
 c214: - y_86 + h_1 <= 0
 c215: - y_87 + h_1 <= 0
 c216: - y_88 + h_1 <= 0
 c217: - y_89 + h_1 <= 0
 c218: - y_90 + h_1 <= 0
 c219: - y_91 + h_1 <= 0
 c220: - y_92 + h_1 <= 0
 c221: - y_93 + h_1 <= 0
 c222: - y_94 + h_1 <= 0
 c223: - y_95 + h_1 <= 0
 c224: - y_96 + h_1 <= 0
 c225: - y_97 + h_1 <= 0
 c226: - y_98 + h_1 <= 0
 c227: - y_99 + h_1 <= 0
 c228: - y_100 + h_1 <= 0
 c229: - y_101 + h_1 <= 0
 c230: - y_102 + h_1 <= 0
 c231: - y_103 + h_1 <= 0
 c232: - y_104 + h_1 <= 0
 c233: - y_105 + h_1 <= 0
 c234: - y_106 + h_1 <= 0
 c235: - y_107 + h_1 <= 0
 c236: - y_108 + h_1 <= 0
 c237: - y_109 + h_1 <= 0
 c238: - y_110 + h_1 <= 0
 c239: - y_111 + h_1 <= 0
 c240: - y_112 + h_1 <= 0
 c241: - y_113 + h_1 <= 0
 c242: - y_114 + h_1 <= 0
 c243: - y_115 + h_1 <= 0
 c244: - y_116 + h_1 <= 0
 c245: - y_117 + h_1 <= 0
 c246: - y_118 + h_1 <= 0
 c247: - y_119 + h_1 <= 0
 c248: - y_120 + h_1 <= 0
 c249: - y_121 + h_1 <= 0
 c250: - y_122 + h_1 <= 0
 c251: - y_123 + h_1 <= 0
 c252: - y_124 + h_1 <= 0
 c253: - y_125 + h_1 <= 0
 c254: - y_126 + h_1 <= 0
 c255: - y_127 + h_1 <= 0
 c256: - y_128 + h_1 <= 0
 c257: - y_1 + h_2 <= 0
 c258: - y_1 + h_3 <= 0
 c259: - y_1 + h_4 <= 0
 c260: - y_1 + h_5 <= 0
 c261: - y_1 + h_6 <= 0
 c262: - y_1 + h_7 <= 0
 c263: - y_1 + h_8 <= 0
 c264: - y_1 + h_9 <= 0
 c265: - y_1 + h_10 <= 0
 c266: - y_1 + h_11 <= 0
 c267: - y_1 + h_12 <= 0
 c268: - y_1 + h_13 <= 0
 c269: - y_1 + h_14 <= 0
 c270: - y_1 + h_15 <= 0
 c271: - y_1 + h_16 <= 0
 c272: - y_1 + h_17 <= 0
 c273: - y_1 + h_18 <= 0
 c274: - y_1 + h_19 <= 0
 c275: - y_1 + h_20 <= 0
 c276: - y_1 + h_21 <= 0
 c277: - y_1 + h_22 <= 0
 c278: - y_1 + h_23 <= 0
 c279: - y_1 + h_24 <= 0
 c280: - y_1 + h_25 <= 0
 c281: - y_1 + h_26 <= 0
 c282: - y_1 + h_27 <= 0
 c283: - y_1 + h_28 <= 0
 c284: - y_1 + h_29 <= 0
 c285: - y_1 + h_30 <= 0
 c286: - y_1 + h_31 <= 0
 c287: - y_1 + h_32 <= 0
 c288: - y_1 + h_33 <= 0
 c289: - y_1 + h_34 <= 0
 c290: - y_1 + h_35 <= 0
 c291: - y_1 + h_36 <= 0
 c292: - y_1 + h_37 <= 0
 c293: - y_1 + h_38 <= 0
 c294: - y_1 + h_39 <= 0
 c295: - y_1 + h_40 <= 0
 c296: - y_1 + h_41 <= 0
 c297: - y_1 + h_42 <= 0
 c298: - y_1 + h_43 <= 0
 c299: - y_1 + h_44 <= 0
 c300: - y_1 + h_45 <= 0
 c301: - y_1 + h_46 <= 0
 c302: - y_1 + h_47 <= 0
 c303: - y_1 + h_48 <= 0
 c304: - y_1 + h_49 <= 0
 c305: - y_1 + h_50 <= 0
 c306: - y_1 + h_51 <= 0
 c307: - y_1 + h_52 <= 0
 c308: - y_1 + h_53 <= 0
 c309: - y_1 + h_54 <= 0
 c310: - y_1 + h_55 <= 0
 c311: - y_1 + h_56 <= 0
 c312: - y_1 + h_57 <= 0
 c313: - y_1 + h_58 <= 0
 c314: - y_1 + h_59 <= 0
 c315: - y_1 + h_60 <= 0
 c316: - y_1 + h_61 <= 0
 c317: - y_1 + h_62 <= 0
 c318: - y_1 + h_63 <= 0
 c319: - y_1 + h_64 <= 0
 c320: - y_1 + h_65 <= 0
 c321: - y_1 + h_66 <= 0
 c322: - y_1 + h_67 <= 0
 c323: - y_1 + h_68 <= 0
 c324: - y_1 + h_69 <= 0
 c325: - y_1 + h_70 <= 0
 c326: - y_1 + h_71 <= 0
 c327: - y_1 + h_72 <= 0
 c328: - y_1 + h_73 <= 0
 c329: - y_1 + h_74 <= 0
 c330: - y_1 + h_75 <= 0
 c331: - y_1 + h_76 <= 0
 c332: - y_1 + h_77 <= 0
 c333: - y_1 + h_78 <= 0
 c334: - y_1 + h_79 <= 0
 c335: - y_1 + h_80 <= 0
 c336: - y_1 + h_81 <= 0
 c337: - y_1 + h_82 <= 0
 c338: - y_1 + h_83 <= 0
 c339: - y_1 + h_84 <= 0
 c340: - y_1 + h_85 <= 0
 c341: - y_1 + h_86 <= 0
 c342: - y_1 + h_87 <= 0
 c343: - y_1 + h_88 <= 0
 c344: - y_1 + h_89 <= 0
 c345: - y_1 + h_90 <= 0
 c346: - y_1 + h_91 <= 0
 c347: - y_1 + h_92 <= 0
 c348: - y_1 + h_93 <= 0
 c349: - y_1 + h_94 <= 0
 c350: - y_1 + h_95 <= 0
 c351: - y_1 + h_96 <= 0
 c352: - y_1 + h_97 <= 0
 c353: - y_1 + h_98 <= 0
 c354: - y_1 + h_99 <= 0
 c355: - y_1 + h_100 <= 0
 c356: - y_1 + h_101 <= 0
 c357: - y_1 + h_102 <= 0
 c358: - y_1 + h_103 <= 0
 c359: - y_1 + h_104 <= 0
 c360: - y_1 + h_105 <= 0
 c361: - y_1 + h_106 <= 0
 c362: - y_1 + h_107 <= 0
 c363: - y_1 + h_108 <= 0
 c364: - y_1 + h_109 <= 0
 c365: - y_1 + h_110 <= 0
 c366: - y_1 + h_111 <= 0
 c367: - y_1 + h_112 <= 0
 c368: - y_1 + h_113 <= 0
 c369: - y_1 + h_114 <= 0
 c370: - y_1 + h_115 <= 0
 c371: - y_1 + h_116 <= 0
 c372: - y_1 + h_117 <= 0
 c373: - y_1 + h_118 <= 0
 c374: - y_1 + h_119 <= 0
 c375: - y_1 + h_120 <= 0
 c376: - y_1 + h_121 <= 0
 c377: - y_1 + h_122 <= 0
 c378: - y_1 + h_123 <= 0
 c379: - y_1 + h_124 <= 0
 c380: - y_1 + h_125 <= 0
 c381: - y_1 + h_126 <= 0
 c382: - y_1 + h_127 <= 0
 c383: - y_1 + h_128 <= 0
 c384: - y_1 - y_2 - y_3 - y_4 - y_5 - y_6 - y_7 - y_8 - y_9 - y_10 - y_11
       - y_12 - y_13 - y_14 - y_15 - y_16 - y_17 - y_18 - y_19 - y_20 - y_21
       - y_22 - y_23 - y_24 - y_25 - y_26 - y_27 - y_28 - y_29 - y_30 - y_31
       - y_32 - y_33 - y_34 - y_35 - y_36 - y_37 - y_38 - y_39 - y_40 - y_41
       - y_42 - y_43 - y_44 - y_45 - y_46 - y_47 - y_48 - y_49 - y_50 - y_51
       - y_52 - y_53 - y_54 - y_55 - y_56 - y_57 - y_58 - y_59 - y_60 - y_61
       - y_62 - y_63 - y_64 - y_65 - y_66 - y_67 - y_68 - y_69 - y_70 - y_71
       - y_72 - y_73 - y_74 - y_75 - y_76 - y_77 - y_78 - y_79 - y_80 - y_81
       - y_82 - y_83 - y_84 - y_85 - y_86 - y_87 - y_88 - y_89 - y_90 - y_91
       - y_92 - y_93 - y_94 - y_95 - y_96 - y_97 - y_98 - y_99 - y_100 - y_101
       - y_102 - y_103 - y_104 - y_105 - y_106 - y_107 - y_108 - y_109 - y_110
       - y_111 - y_112 - y_113 - y_114 - y_115 - y_116 - y_117 - y_118 - y_119
       - y_120 - y_121 - y_122 - y_123 - y_124 - y_125 - y_126 - y_127 - y_128
       + h_1 >= -127
 c385: - y_1 - y_2 + h_2 >= -1
 c386: - y_1 - y_3 + h_3 >= -1
 c387: - y_1 - y_4 + h_4 >= -1
 c388: - y_1 - y_5 + h_5 >= -1
 c389: - y_1 - y_6 + h_6 >= -1
 c390: - y_1 - y_7 + h_7 >= -1
 c391: - y_1 - y_8 + h_8 >= -1
 c392: - y_1 - y_9 + h_9 >= -1
 c393: - y_1 - y_10 + h_10 >= -1
 c394: - y_1 - y_11 + h_11 >= -1
 c395: - y_1 - y_12 + h_12 >= -1
 c396: - y_1 - y_13 + h_13 >= -1
 c397: - y_1 - y_14 + h_14 >= -1
 c398: - y_1 - y_15 + h_15 >= -1
 c399: - y_1 - y_16 + h_16 >= -1
 c400: - y_1 - y_17 + h_17 >= -1
 c401: - y_1 - y_18 + h_18 >= -1
 c402: - y_1 - y_19 + h_19 >= -1
 c403: - y_1 - y_20 + h_20 >= -1
 c404: - y_1 - y_21 + h_21 >= -1
 c405: - y_1 - y_22 + h_22 >= -1
 c406: - y_1 - y_23 + h_23 >= -1
 c407: - y_1 - y_24 + h_24 >= -1
 c408: - y_1 - y_25 + h_25 >= -1
 c409: - y_1 - y_26 + h_26 >= -1
 c410: - y_1 - y_27 + h_27 >= -1
 c411: - y_1 - y_28 + h_28 >= -1
 c412: - y_1 - y_29 + h_29 >= -1
 c413: - y_1 - y_30 + h_30 >= -1
 c414: - y_1 - y_31 + h_31 >= -1
 c415: - y_1 - y_32 + h_32 >= -1
 c416: - y_1 - y_33 + h_33 >= -1
 c417: - y_1 - y_34 + h_34 >= -1
 c418: - y_1 - y_35 + h_35 >= -1
 c419: - y_1 - y_36 + h_36 >= -1
 c420: - y_1 - y_37 + h_37 >= -1
 c421: - y_1 - y_38 + h_38 >= -1
 c422: - y_1 - y_39 + h_39 >= -1
 c423: - y_1 - y_40 + h_40 >= -1
 c424: - y_1 - y_41 + h_41 >= -1
 c425: - y_1 - y_42 + h_42 >= -1
 c426: - y_1 - y_43 + h_43 >= -1
 c427: - y_1 - y_44 + h_44 >= -1
 c428: - y_1 - y_45 + h_45 >= -1
 c429: - y_1 - y_46 + h_46 >= -1
 c430: - y_1 - y_47 + h_47 >= -1
 c431: - y_1 - y_48 + h_48 >= -1
 c432: - y_1 - y_49 + h_49 >= -1
 c433: - y_1 - y_50 + h_50 >= -1
 c434: - y_1 - y_51 + h_51 >= -1
 c435: - y_1 - y_52 + h_52 >= -1
 c436: - y_1 - y_53 + h_53 >= -1
 c437: - y_1 - y_54 + h_54 >= -1
 c438: - y_1 - y_55 + h_55 >= -1
 c439: - y_1 - y_56 + h_56 >= -1
 c440: - y_1 - y_57 + h_57 >= -1
 c441: - y_1 - y_58 + h_58 >= -1
 c442: - y_1 - y_59 + h_59 >= -1
 c443: - y_1 - y_60 + h_60 >= -1
 c444: - y_1 - y_61 + h_61 >= -1
 c445: - y_1 - y_62 + h_62 >= -1
 c446: - y_1 - y_63 + h_63 >= -1
 c447: - y_1 - y_64 + h_64 >= -1
 c448: - y_1 - y_65 + h_65 >= -1
 c449: - y_1 - y_66 + h_66 >= -1
 c450: - y_1 - y_67 + h_67 >= -1
 c451: - y_1 - y_68 + h_68 >= -1
 c452: - y_1 - y_69 + h_69 >= -1
 c453: - y_1 - y_70 + h_70 >= -1
 c454: - y_1 - y_71 + h_71 >= -1
 c455: - y_1 - y_72 + h_72 >= -1
 c456: - y_1 - y_73 + h_73 >= -1
 c457: - y_1 - y_74 + h_74 >= -1
 c458: - y_1 - y_75 + h_75 >= -1
 c459: - y_1 - y_76 + h_76 >= -1
 c460: - y_1 - y_77 + h_77 >= -1
 c461: - y_1 - y_78 + h_78 >= -1
 c462: - y_1 - y_79 + h_79 >= -1
 c463: - y_1 - y_80 + h_80 >= -1
 c464: - y_1 - y_81 + h_81 >= -1
 c465: - y_1 - y_82 + h_82 >= -1
 c466: - y_1 - y_83 + h_83 >= -1
 c467: - y_1 - y_84 + h_84 >= -1
 c468: - y_1 - y_85 + h_85 >= -1
 c469: - y_1 - y_86 + h_86 >= -1
 c470: - y_1 - y_87 + h_87 >= -1
 c471: - y_1 - y_88 + h_88 >= -1
 c472: - y_1 - y_89 + h_89 >= -1
 c473: - y_1 - y_90 + h_90 >= -1
 c474: - y_1 - y_91 + h_91 >= -1
 c475: - y_1 - y_92 + h_92 >= -1
 c476: - y_1 - y_93 + h_93 >= -1
 c477: - y_1 - y_94 + h_94 >= -1
 c478: - y_1 - y_95 + h_95 >= -1
 c479: - y_1 - y_96 + h_96 >= -1
 c480: - y_1 - y_97 + h_97 >= -1
 c481: - y_1 - y_98 + h_98 >= -1
 c482: - y_1 - y_99 + h_99 >= -1
 c483: - y_1 - y_100 + h_100 >= -1
 c484: - y_1 - y_101 + h_101 >= -1
 c485: - y_1 - y_102 + h_102 >= -1
 c486: - y_1 - y_103 + h_103 >= -1
 c487: - y_1 - y_104 + h_104 >= -1
 c488: - y_1 - y_105 + h_105 >= -1
 c489: - y_1 - y_106 + h_106 >= -1
 c490: - y_1 - y_107 + h_107 >= -1
 c491: - y_1 - y_108 + h_108 >= -1
 c492: - y_1 - y_109 + h_109 >= -1
 c493: - y_1 - y_110 + h_110 >= -1
 c494: - y_1 - y_111 + h_111 >= -1
 c495: - y_1 - y_112 + h_112 >= -1
 c496: - y_1 - y_113 + h_113 >= -1
 c497: - y_1 - y_114 + h_114 >= -1
 c498: - y_1 - y_115 + h_115 >= -1
 c499: - y_1 - y_116 + h_116 >= -1
 c500: - y_1 - y_117 + h_117 >= -1
 c501: - y_1 - y_118 + h_118 >= -1
 c502: - y_1 - y_119 + h_119 >= -1
 c503: - y_1 - y_120 + h_120 >= -1
 c504: - y_1 - y_121 + h_121 >= -1
 c505: - y_1 - y_122 + h_122 >= -1
 c506: - y_1 - y_123 + h_123 >= -1
 c507: - y_1 - y_124 + h_124 >= -1
 c508: - y_1 - y_125 + h_125 >= -1
 c509: - y_1 - y_126 + h_126 >= -1
 c510: - y_1 - y_127 + h_127 >= -1
 c511: - y_1 - y_128 + h_128 >= -1
Bounds
 0 <= y_1 <= 1
 0 <= y_2 <= 1
 0 <= y_3 <= 1
 0 <= y_4 <= 1
 0 <= y_5 <= 1
 0 <= y_6 <= 1
 0 <= y_7 <= 1
 0 <= y_8 <= 1
 0 <= y_9 <= 1
 0 <= y_10 <= 1
 0 <= y_11 <= 1
 0 <= y_12 <= 1
 0 <= y_13 <= 1
 0 <= y_14 <= 1
 0 <= y_15 <= 1
 0 <= y_16 <= 1
 0 <= y_17 <= 1
 0 <= y_18 <= 1
 0 <= y_19 <= 1
 0 <= y_20 <= 1
 0 <= y_21 <= 1
 0 <= y_22 <= 1
 0 <= y_23 <= 1
 0 <= y_24 <= 1
 0 <= y_25 <= 1
 0 <= y_26 <= 1
 0 <= y_27 <= 1
 0 <= y_28 <= 1
 0 <= y_29 <= 1
 0 <= y_30 <= 1
 0 <= y_31 <= 1
 0 <= y_32 <= 1
 0 <= y_33 <= 1
 0 <= y_34 <= 1
 0 <= y_35 <= 1
 0 <= y_36 <= 1
 0 <= y_37 <= 1
 0 <= y_38 <= 1
 0 <= y_39 <= 1
 0 <= y_40 <= 1
 0 <= y_41 <= 1
 0 <= y_42 <= 1
 0 <= y_43 <= 1
 0 <= y_44 <= 1
 0 <= y_45 <= 1
 0 <= y_46 <= 1
 0 <= y_47 <= 1
 0 <= y_48 <= 1
 0 <= y_49 <= 1
 0 <= y_50 <= 1
 0 <= y_51 <= 1
 0 <= y_52 <= 1
 0 <= y_53 <= 1
 0 <= y_54 <= 1
 0 <= y_55 <= 1
 0 <= y_56 <= 1
 0 <= y_57 <= 1
 0 <= y_58 <= 1
 0 <= y_59 <= 1
 0 <= y_60 <= 1
 0 <= y_61 <= 1
 0 <= y_62 <= 1
 0 <= y_63 <= 1
 0 <= y_64 <= 1
 0 <= y_65 <= 1
 0 <= y_66 <= 1
 0 <= y_67 <= 1
 0 <= y_68 <= 1
 0 <= y_69 <= 1
 0 <= y_70 <= 1
 0 <= y_71 <= 1
 0 <= y_72 <= 1
 0 <= y_73 <= 1
 0 <= y_74 <= 1
 0 <= y_75 <= 1
 0 <= y_76 <= 1
 0 <= y_77 <= 1
 0 <= y_78 <= 1
 0 <= y_79 <= 1
 0 <= y_80 <= 1
 0 <= y_81 <= 1
 0 <= y_82 <= 1
 0 <= y_83 <= 1
 0 <= y_84 <= 1
 0 <= y_85 <= 1
 0 <= y_86 <= 1
 0 <= y_87 <= 1
 0 <= y_88 <= 1
 0 <= y_89 <= 1
 0 <= y_90 <= 1
 0 <= y_91 <= 1
 0 <= y_92 <= 1
 0 <= y_93 <= 1
 0 <= y_94 <= 1
 0 <= y_95 <= 1
 0 <= y_96 <= 1
 0 <= y_97 <= 1
 0 <= y_98 <= 1
 0 <= y_99 <= 1
 0 <= y_100 <= 1
 0 <= y_101 <= 1
 0 <= y_102 <= 1
 0 <= y_103 <= 1
 0 <= y_104 <= 1
 0 <= y_105 <= 1
 0 <= y_106 <= 1
 0 <= y_107 <= 1
 0 <= y_108 <= 1
 0 <= y_109 <= 1
 0 <= y_110 <= 1
 0 <= y_111 <= 1
 0 <= y_112 <= 1
 0 <= y_113 <= 1
 0 <= y_114 <= 1
 0 <= y_115 <= 1
 0 <= y_116 <= 1
 0 <= y_117 <= 1
 0 <= y_118 <= 1
 0 <= y_119 <= 1
 0 <= y_120 <= 1
 0 <= y_121 <= 1
 0 <= y_122 <= 1
 0 <= y_123 <= 1
 0 <= y_124 <= 1
 0 <= y_125 <= 1
 0 <= y_126 <= 1
 0 <= y_127 <= 1
 0 <= y_128 <= 1
 0 <= h_1 <= 1
 0 <= h_2 <= 1
 0 <= h_3 <= 1
 0 <= h_4 <= 1
 0 <= h_5 <= 1
 0 <= h_6 <= 1
 0 <= h_7 <= 1
 0 <= h_8 <= 1
 0 <= h_9 <= 1
 0 <= h_10 <= 1
 0 <= h_11 <= 1
 0 <= h_12 <= 1
 0 <= h_13 <= 1
 0 <= h_14 <= 1
 0 <= h_15 <= 1
 0 <= h_16 <= 1
 0 <= h_17 <= 1
 0 <= h_18 <= 1
 0 <= h_19 <= 1
 0 <= h_20 <= 1
 0 <= h_21 <= 1
 0 <= h_22 <= 1
 0 <= h_23 <= 1
 0 <= h_24 <= 1
 0 <= h_25 <= 1
 0 <= h_26 <= 1
 0 <= h_27 <= 1
 0 <= h_28 <= 1
 0 <= h_29 <= 1
 0 <= h_30 <= 1
 0 <= h_31 <= 1
 0 <= h_32 <= 1
 0 <= h_33 <= 1
 0 <= h_34 <= 1
 0 <= h_35 <= 1
 0 <= h_36 <= 1
 0 <= h_37 <= 1
 0 <= h_38 <= 1
 0 <= h_39 <= 1
 0 <= h_40 <= 1
 0 <= h_41 <= 1
 0 <= h_42 <= 1
 0 <= h_43 <= 1
 0 <= h_44 <= 1
 0 <= h_45 <= 1
 0 <= h_46 <= 1
 0 <= h_47 <= 1
 0 <= h_48 <= 1
 0 <= h_49 <= 1
 0 <= h_50 <= 1
 0 <= h_51 <= 1
 0 <= h_52 <= 1
 0 <= h_53 <= 1
 0 <= h_54 <= 1
 0 <= h_55 <= 1
 0 <= h_56 <= 1
 0 <= h_57 <= 1
 0 <= h_58 <= 1
 0 <= h_59 <= 1
 0 <= h_60 <= 1
 0 <= h_61 <= 1
 0 <= h_62 <= 1
 0 <= h_63 <= 1
 0 <= h_64 <= 1
 0 <= h_65 <= 1
 0 <= h_66 <= 1
 0 <= h_67 <= 1
 0 <= h_68 <= 1
 0 <= h_69 <= 1
 0 <= h_70 <= 1
 0 <= h_71 <= 1
 0 <= h_72 <= 1
 0 <= h_73 <= 1
 0 <= h_74 <= 1
 0 <= h_75 <= 1
 0 <= h_76 <= 1
 0 <= h_77 <= 1
 0 <= h_78 <= 1
 0 <= h_79 <= 1
 0 <= h_80 <= 1
 0 <= h_81 <= 1
 0 <= h_82 <= 1
 0 <= h_83 <= 1
 0 <= h_84 <= 1
 0 <= h_85 <= 1
 0 <= h_86 <= 1
 0 <= h_87 <= 1
 0 <= h_88 <= 1
 0 <= h_89 <= 1
 0 <= h_90 <= 1
 0 <= h_91 <= 1
 0 <= h_92 <= 1
 0 <= h_93 <= 1
 0 <= h_94 <= 1
 0 <= h_95 <= 1
 0 <= h_96 <= 1
 0 <= h_97 <= 1
 0 <= h_98 <= 1
 0 <= h_99 <= 1
 0 <= h_100 <= 1
 0 <= h_101 <= 1
 0 <= h_102 <= 1
 0 <= h_103 <= 1
 0 <= h_104 <= 1
 0 <= h_105 <= 1
 0 <= h_106 <= 1
 0 <= h_107 <= 1
 0 <= h_108 <= 1
 0 <= h_109 <= 1
 0 <= h_110 <= 1
 0 <= h_111 <= 1
 0 <= h_112 <= 1
 0 <= h_113 <= 1
 0 <= h_114 <= 1
 0 <= h_115 <= 1
 0 <= h_116 <= 1
 0 <= h_117 <= 1
 0 <= h_118 <= 1
 0 <= h_119 <= 1
 0 <= h_120 <= 1
 0 <= h_121 <= 1
 0 <= h_122 <= 1
 0 <= h_123 <= 1
 0 <= h_124 <= 1
 0 <= h_125 <= 1
 0 <= h_126 <= 1
 0 <= h_127 <= 1
 0 <= h_128 <= 1
Binaries
 y_1  y_2  y_3  y_4  y_5  y_6  y_7  y_8  y_9  y_10  y_11  y_12  y_13  y_14 
 y_15  y_16  y_17  y_18  y_19  y_20  y_21  y_22  y_23  y_24  y_25  y_26  y_27 
 y_28  y_29  y_30  y_31  y_32  y_33  y_34  y_35  y_36  y_37  y_38  y_39  y_40 
 y_41  y_42  y_43  y_44  y_45  y_46  y_47  y_48  y_49  y_50  y_51  y_52  y_53 
 y_54  y_55  y_56  y_57  y_58  y_59  y_60  y_61  y_62  y_63  y_64  y_65  y_66 
 y_67  y_68  y_69  y_70  y_71  y_72  y_73  y_74  y_75  y_76  y_77  y_78  y_79 
 y_80  y_81  y_82  y_83  y_84  y_85  y_86  y_87  y_88  y_89  y_90  y_91  y_92 
 y_93  y_94  y_95  y_96  y_97  y_98  y_99  y_100  y_101  y_102  y_103  y_104 
 y_105  y_106  y_107  y_108  y_109  y_110  y_111  y_112  y_113  y_114  y_115 
 y_116  y_117  y_118  y_119  y_120  y_121  y_122  y_123  y_124  y_125  y_126 
 y_127  y_128  h_1  h_2  h_3  h_4  h_5  h_6  h_7  h_8  h_9  h_10  h_11  h_12 
 h_13  h_14  h_15  h_16  h_17  h_18  h_19  h_20  h_21  h_22  h_23  h_24  h_25 
 h_26  h_27  h_28  h_29  h_30  h_31  h_32  h_33  h_34  h_35  h_36  h_37  h_38 
 h_39  h_40  h_41  h_42  h_43  h_44  h_45  h_46  h_47  h_48  h_49  h_50  h_51 
 h_52  h_53  h_54  h_55  h_56  h_57  h_58  h_59  h_60  h_61  h_62  h_63  h_64 
 h_65  h_66  h_67  h_68  h_69  h_70  h_71  h_72  h_73  h_74  h_75  h_76  h_77 
 h_78  h_79  h_80  h_81  h_82  h_83  h_84  h_85  h_86  h_87  h_88  h_89  h_90 
 h_91  h_92  h_93  h_94  h_95  h_96  h_97  h_98  h_99  h_100  h_101  h_102 
 h_103  h_104  h_105  h_106  h_107  h_108  h_109  h_110  h_111  h_112  h_113 
 h_114  h_115  h_116  h_117  h_118  h_119  h_120  h_121  h_122  h_123  h_124 
 h_125  h_126  h_127  h_128 
End
